Route 1: 0 8 9 50 6 77 70 85 60 99 19 0
Route 2: 0 62 84 31 76 95 43 28 0
Route 3: 0 3 79 57 81 86 5 69 0
Route 4: 0 13 22 53 27 74 58 47 35 94 7 0
Route 5: 0 90 25 89 67 52 92 65 30 55 0
Route 6: 0 33 38 12 46 40 64 49 71 26 21 17 44 0
Route 7: 0 68 66 78 73 56 87 100 80 0
Route 8: 0 23 1 98 29 61 36 82 18 37 93 83 75 0
Route 9: 0 48 41 16 97 51 15 34 39 10 88 91 0
Route 10: 0 20 14 24 32 4 63 72 2 59 96 45 11 0
Route 11: 0 42 54 0
